(set-option :produce-models true)
(set-logic QF_LRA)
(set-info :notes | Strip-packing problem.|)
(declare-fun x0 () Real)
(declare-fun y0 () Real)
(declare-fun x1 () Real)
(declare-fun y1 () Real)
(declare-fun x2 () Real)
(declare-fun y2 () Real)
(declare-fun x3 () Real)
(declare-fun y3 () Real)
(declare-fun x4 () Real)
(declare-fun y4 () Real)
(declare-fun x5 () Real)
(declare-fun y5 () Real)
(declare-fun x6 () Real)
(declare-fun y6 () Real)
(declare-fun x7 () Real)
(declare-fun y7 () Real)
(declare-fun x8 () Real)
(declare-fun y8 () Real)
(declare-fun x9 () Real)
(declare-fun y9 () Real)
(declare-fun x10 () Real)
(declare-fun y10 () Real)
(declare-fun x11 () Real)
(declare-fun y11 () Real)
(declare-fun x12 () Real)
(declare-fun y12 () Real)
(declare-fun x13 () Real)
(declare-fun y13 () Real)
(declare-fun x14 () Real)
(declare-fun y14 () Real)
(declare-fun z () Real)
(declare-fun c () Real)
(assert (and (= c z) (and (>= x0 0) 
(and (>= y0 0) 
(and (>= x1 0) 
(and (>= y1 0) 
(and (>= x2 0) 
(and (>= y2 0) 
(and (>= x3 0) 
(and (>= y3 0) 
(and (>= x4 0) 
(and (>= y4 0) 
(and (>= x5 0) 
(and (>= y5 0) 
(and (>= x6 0) 
(and (>= y6 0) 
(and (>= x7 0) 
(and (>= y7 0) 
(and (>= x8 0) 
(and (>= y8 0) 
(and (>= x9 0) 
(and (>= y9 0) 
(and (>= x10 0) 
(and (>= y10 0) 
(and (>= x11 0) 
(and (>= y11 0) 
(and (>= x12 0) 
(and (>= y12 0) 
(and (>= x13 0) 
(and (>= y13 0) 
(and (>= x14 0) 
(and (>= y14 0) 
(and (>= z 0) 
(and (>= c 0) 
(and (<= (+ x0 0.8183743519) z) 
(and (<= 0.9982713741 y0) 
(and (<= y0 1.9364916731) 
(and (<= x0 (- 3.8665295944 0.8183743519)) 
(and (>= x0 0) 
(and (<= (+ x1 0.8757246399) z) 
(and (<= 0.9146765573 y1) 
(and (<= y1 1.9364916731) 
(and (<= x1 (- 3.8665295944 0.8757246399)) 
(and (>= x1 0) 
(and (<= (+ x2 0.4172441226) z) 
(and (<= 0.900524585 y2) 
(and (<= y2 1.9364916731) 
(and (<= x2 (- 3.8665295944 0.4172441226)) 
(and (>= x2 0) 
(and (<= (+ x3 0.3199552576) z) 
(and (<= 0.8434128332 y3) 
(and (<= y3 1.9364916731) 
(and (<= x3 (- 3.8665295944 0.3199552576)) 
(and (>= x3 0) 
(and (<= (+ x4 0.6427941791) z) 
(and (<= 0.6966318859 y4) 
(and (<= y4 1.9364916731) 
(and (<= x4 (- 3.8665295944 0.6427941791)) 
(and (>= x4 0) 
(and (<= (+ x5 0.6743569761) z) 
(and (<= 0.650638053 y5) 
(and (<= y5 1.9364916731) 
(and (<= x5 (- 3.8665295944 0.6743569761)) 
(and (>= x5 0) 
(and (<= (+ x6 0.086875282) z) 
(and (<= 0.56651691 y6) 
(and (<= y6 1.9364916731) 
(and (<= x6 (- 3.8665295944 0.086875282)) 
(and (>= x6 0) 
(and (<= (+ x7 0.2845447971) z) 
(and (<= 0.5588099478 y7) 
(and (<= y7 1.9364916731) 
(and (<= x7 (- 3.8665295944 0.2845447971)) 
(and (>= x7 0) 
(and (<= (+ x8 0.5087820285) z) 
(and (<= 0.515334815 y8) 
(and (<= y8 1.9364916731) 
(and (<= x8 (- 3.8665295944 0.5087820285)) 
(and (>= x8 0) 
(and (<= (+ x9 0.8552794474) z) 
(and (<= 0.5101026745 y9) 
(and (<= y9 1.9364916731) 
(and (<= x9 (- 3.8665295944 0.8552794474)) 
(and (>= x9 0) 
(and (<= (+ x10 0.4612371522) z) 
(and (<= 0.4397598073 y10) 
(and (<= y10 1.9364916731) 
(and (<= x10 (- 3.8665295944 0.4612371522)) 
(and (>= x10 0) 
(and (<= (+ x11 0.6157342174) z) 
(and (<= 0.3536154748 y11) 
(and (<= y11 1.9364916731) 
(and (<= x11 (- 3.8665295944 0.6157342174)) 
(and (>= x11 0) 
(and (<= (+ x12 0.1880127402) z) 
(and (<= 0.2098325106 y12) 
(and (<= y12 1.9364916731) 
(and (<= x12 (- 3.8665295944 0.1880127402)) 
(and (>= x12 0) 
(and (<= (+ x13 0.6928259987) z) 
(and (<= 0.1582222869 y13) 
(and (<= y13 1.9364916731) 
(and (<= x13 (- 3.8665295944 0.6928259987)) 
(and (>= x13 0) 
(and (<= (+ x14 0.4948998519) z) 
(and (<= 0.0311510725 y14) 
(and (<= y14 1.9364916731) 
(and (<= x14 (- 3.8665295944 0.4948998519)) 
(and (>= x14 0) 
(and (<= c 3.8665295944) 
(and (or (<= (+ x0 0.8183743519) x1) (or (<= (+ x1 0.8757246399) x0) (or (>= (- y0 0.9982713741) y1) (or (>= (- y1 0.9146765573) y0))))) 
(and (or (<= (+ x0 0.8183743519) x2) (or (<= (+ x2 0.4172441226) x0) (or (>= (- y0 0.9982713741) y2) (or (>= (- y2 0.900524585) y0))))) 
(and (or (<= (+ x0 0.8183743519) x3) (or (<= (+ x3 0.3199552576) x0) (or (>= (- y0 0.9982713741) y3) (or (>= (- y3 0.8434128332) y0))))) 
(and (or (<= (+ x0 0.8183743519) x4) (or (<= (+ x4 0.6427941791) x0) (or (>= (- y0 0.9982713741) y4) (or (>= (- y4 0.6966318859) y0))))) 
(and (or (<= (+ x0 0.8183743519) x5) (or (<= (+ x5 0.6743569761) x0) (or (>= (- y0 0.9982713741) y5) (or (>= (- y5 0.650638053) y0))))) 
(and (or (<= (+ x0 0.8183743519) x6) (or (<= (+ x6 0.086875282) x0) (or (>= (- y0 0.9982713741) y6) (or (>= (- y6 0.56651691) y0))))) 
(and (or (<= (+ x0 0.8183743519) x7) (or (<= (+ x7 0.2845447971) x0) (or (>= (- y0 0.9982713741) y7) (or (>= (- y7 0.5588099478) y0))))) 
(and (or (<= (+ x0 0.8183743519) x8) (or (<= (+ x8 0.5087820285) x0) (or (>= (- y0 0.9982713741) y8) (or (>= (- y8 0.515334815) y0))))) 
(and (or (<= (+ x0 0.8183743519) x9) (or (<= (+ x9 0.8552794474) x0) (or (>= (- y0 0.9982713741) y9) (or (>= (- y9 0.5101026745) y0))))) 
(and (or (<= (+ x0 0.8183743519) x10) (or (<= (+ x10 0.4612371522) x0) (or (>= (- y0 0.9982713741) y10) (or (>= (- y10 0.4397598073) y0))))) 
(and (or (<= (+ x0 0.8183743519) x11) (or (<= (+ x11 0.6157342174) x0) (or (>= (- y0 0.9982713741) y11) (or (>= (- y11 0.3536154748) y0))))) 
(and (or (<= (+ x0 0.8183743519) x12) (or (<= (+ x12 0.1880127402) x0) (or (>= (- y0 0.9982713741) y12) (or (>= (- y12 0.2098325106) y0))))) 
(and (or (<= (+ x0 0.8183743519) x13) (or (<= (+ x13 0.6928259987) x0) (or (>= (- y0 0.9982713741) y13) (or (>= (- y13 0.1582222869) y0))))) 
(and (or (<= (+ x0 0.8183743519) x14) (or (<= (+ x14 0.4948998519) x0) (or (>= (- y0 0.9982713741) y14) (or (>= (- y14 0.0311510725) y0))))) 
(and (or (<= (+ x1 0.8757246399) x2) (or (<= (+ x2 0.4172441226) x1) (or (>= (- y1 0.9146765573) y2) (or (>= (- y2 0.900524585) y1))))) 
(and (or (<= (+ x1 0.8757246399) x3) (or (<= (+ x3 0.3199552576) x1) (or (>= (- y1 0.9146765573) y3) (or (>= (- y3 0.8434128332) y1))))) 
(and (or (<= (+ x1 0.8757246399) x4) (or (<= (+ x4 0.6427941791) x1) (or (>= (- y1 0.9146765573) y4) (or (>= (- y4 0.6966318859) y1))))) 
(and (or (<= (+ x1 0.8757246399) x5) (or (<= (+ x5 0.6743569761) x1) (or (>= (- y1 0.9146765573) y5) (or (>= (- y5 0.650638053) y1))))) 
(and (or (<= (+ x1 0.8757246399) x6) (or (<= (+ x6 0.086875282) x1) (or (>= (- y1 0.9146765573) y6) (or (>= (- y6 0.56651691) y1))))) 
(and (or (<= (+ x1 0.8757246399) x7) (or (<= (+ x7 0.2845447971) x1) (or (>= (- y1 0.9146765573) y7) (or (>= (- y7 0.5588099478) y1))))) 
(and (or (<= (+ x1 0.8757246399) x8) (or (<= (+ x8 0.5087820285) x1) (or (>= (- y1 0.9146765573) y8) (or (>= (- y8 0.515334815) y1))))) 
(and (or (<= (+ x1 0.8757246399) x9) (or (<= (+ x9 0.8552794474) x1) (or (>= (- y1 0.9146765573) y9) (or (>= (- y9 0.5101026745) y1))))) 
(and (or (<= (+ x1 0.8757246399) x10) (or (<= (+ x10 0.4612371522) x1) (or (>= (- y1 0.9146765573) y10) (or (>= (- y10 0.4397598073) y1))))) 
(and (or (<= (+ x1 0.8757246399) x11) (or (<= (+ x11 0.6157342174) x1) (or (>= (- y1 0.9146765573) y11) (or (>= (- y11 0.3536154748) y1))))) 
(and (or (<= (+ x1 0.8757246399) x12) (or (<= (+ x12 0.1880127402) x1) (or (>= (- y1 0.9146765573) y12) (or (>= (- y12 0.2098325106) y1))))) 
(and (or (<= (+ x1 0.8757246399) x13) (or (<= (+ x13 0.6928259987) x1) (or (>= (- y1 0.9146765573) y13) (or (>= (- y13 0.1582222869) y1))))) 
(and (or (<= (+ x1 0.8757246399) x14) (or (<= (+ x14 0.4948998519) x1) (or (>= (- y1 0.9146765573) y14) (or (>= (- y14 0.0311510725) y1))))) 
(and (or (<= (+ x2 0.4172441226) x3) (or (<= (+ x3 0.3199552576) x2) (or (>= (- y2 0.900524585) y3) (or (>= (- y3 0.8434128332) y2))))) 
(and (or (<= (+ x2 0.4172441226) x4) (or (<= (+ x4 0.6427941791) x2) (or (>= (- y2 0.900524585) y4) (or (>= (- y4 0.6966318859) y2))))) 
(and (or (<= (+ x2 0.4172441226) x5) (or (<= (+ x5 0.6743569761) x2) (or (>= (- y2 0.900524585) y5) (or (>= (- y5 0.650638053) y2))))) 
(and (or (<= (+ x2 0.4172441226) x6) (or (<= (+ x6 0.086875282) x2) (or (>= (- y2 0.900524585) y6) (or (>= (- y6 0.56651691) y2))))) 
(and (or (<= (+ x2 0.4172441226) x7) (or (<= (+ x7 0.2845447971) x2) (or (>= (- y2 0.900524585) y7) (or (>= (- y7 0.5588099478) y2))))) 
(and (or (<= (+ x2 0.4172441226) x8) (or (<= (+ x8 0.5087820285) x2) (or (>= (- y2 0.900524585) y8) (or (>= (- y8 0.515334815) y2))))) 
(and (or (<= (+ x2 0.4172441226) x9) (or (<= (+ x9 0.8552794474) x2) (or (>= (- y2 0.900524585) y9) (or (>= (- y9 0.5101026745) y2))))) 
(and (or (<= (+ x2 0.4172441226) x10) (or (<= (+ x10 0.4612371522) x2) (or (>= (- y2 0.900524585) y10) (or (>= (- y10 0.4397598073) y2))))) 
(and (or (<= (+ x2 0.4172441226) x11) (or (<= (+ x11 0.6157342174) x2) (or (>= (- y2 0.900524585) y11) (or (>= (- y11 0.3536154748) y2))))) 
(and (or (<= (+ x2 0.4172441226) x12) (or (<= (+ x12 0.1880127402) x2) (or (>= (- y2 0.900524585) y12) (or (>= (- y12 0.2098325106) y2))))) 
(and (or (<= (+ x2 0.4172441226) x13) (or (<= (+ x13 0.6928259987) x2) (or (>= (- y2 0.900524585) y13) (or (>= (- y13 0.1582222869) y2))))) 
(and (or (<= (+ x2 0.4172441226) x14) (or (<= (+ x14 0.4948998519) x2) (or (>= (- y2 0.900524585) y14) (or (>= (- y14 0.0311510725) y2))))) 
(and (or (<= (+ x3 0.3199552576) x4) (or (<= (+ x4 0.6427941791) x3) (or (>= (- y3 0.8434128332) y4) (or (>= (- y4 0.6966318859) y3))))) 
(and (or (<= (+ x3 0.3199552576) x5) (or (<= (+ x5 0.6743569761) x3) (or (>= (- y3 0.8434128332) y5) (or (>= (- y5 0.650638053) y3))))) 
(and (or (<= (+ x3 0.3199552576) x6) (or (<= (+ x6 0.086875282) x3) (or (>= (- y3 0.8434128332) y6) (or (>= (- y6 0.56651691) y3))))) 
(and (or (<= (+ x3 0.3199552576) x7) (or (<= (+ x7 0.2845447971) x3) (or (>= (- y3 0.8434128332) y7) (or (>= (- y7 0.5588099478) y3))))) 
(and (or (<= (+ x3 0.3199552576) x8) (or (<= (+ x8 0.5087820285) x3) (or (>= (- y3 0.8434128332) y8) (or (>= (- y8 0.515334815) y3))))) 
(and (or (<= (+ x3 0.3199552576) x9) (or (<= (+ x9 0.8552794474) x3) (or (>= (- y3 0.8434128332) y9) (or (>= (- y9 0.5101026745) y3))))) 
(and (or (<= (+ x3 0.3199552576) x10) (or (<= (+ x10 0.4612371522) x3) (or (>= (- y3 0.8434128332) y10) (or (>= (- y10 0.4397598073) y3))))) 
(and (or (<= (+ x3 0.3199552576) x11) (or (<= (+ x11 0.6157342174) x3) (or (>= (- y3 0.8434128332) y11) (or (>= (- y11 0.3536154748) y3))))) 
(and (or (<= (+ x3 0.3199552576) x12) (or (<= (+ x12 0.1880127402) x3) (or (>= (- y3 0.8434128332) y12) (or (>= (- y12 0.2098325106) y3))))) 
(and (or (<= (+ x3 0.3199552576) x13) (or (<= (+ x13 0.6928259987) x3) (or (>= (- y3 0.8434128332) y13) (or (>= (- y13 0.1582222869) y3))))) 
(and (or (<= (+ x3 0.3199552576) x14) (or (<= (+ x14 0.4948998519) x3) (or (>= (- y3 0.8434128332) y14) (or (>= (- y14 0.0311510725) y3))))) 
(and (or (<= (+ x4 0.6427941791) x5) (or (<= (+ x5 0.6743569761) x4) (or (>= (- y4 0.6966318859) y5) (or (>= (- y5 0.650638053) y4))))) 
(and (or (<= (+ x4 0.6427941791) x6) (or (<= (+ x6 0.086875282) x4) (or (>= (- y4 0.6966318859) y6) (or (>= (- y6 0.56651691) y4))))) 
(and (or (<= (+ x4 0.6427941791) x7) (or (<= (+ x7 0.2845447971) x4) (or (>= (- y4 0.6966318859) y7) (or (>= (- y7 0.5588099478) y4))))) 
(and (or (<= (+ x4 0.6427941791) x8) (or (<= (+ x8 0.5087820285) x4) (or (>= (- y4 0.6966318859) y8) (or (>= (- y8 0.515334815) y4))))) 
(and (or (<= (+ x4 0.6427941791) x9) (or (<= (+ x9 0.8552794474) x4) (or (>= (- y4 0.6966318859) y9) (or (>= (- y9 0.5101026745) y4))))) 
(and (or (<= (+ x4 0.6427941791) x10) (or (<= (+ x10 0.4612371522) x4) (or (>= (- y4 0.6966318859) y10) (or (>= (- y10 0.4397598073) y4))))) 
(and (or (<= (+ x4 0.6427941791) x11) (or (<= (+ x11 0.6157342174) x4) (or (>= (- y4 0.6966318859) y11) (or (>= (- y11 0.3536154748) y4))))) 
(and (or (<= (+ x4 0.6427941791) x12) (or (<= (+ x12 0.1880127402) x4) (or (>= (- y4 0.6966318859) y12) (or (>= (- y12 0.2098325106) y4))))) 
(and (or (<= (+ x4 0.6427941791) x13) (or (<= (+ x13 0.6928259987) x4) (or (>= (- y4 0.6966318859) y13) (or (>= (- y13 0.1582222869) y4))))) 
(and (or (<= (+ x4 0.6427941791) x14) (or (<= (+ x14 0.4948998519) x4) (or (>= (- y4 0.6966318859) y14) (or (>= (- y14 0.0311510725) y4))))) 
(and (or (<= (+ x5 0.6743569761) x6) (or (<= (+ x6 0.086875282) x5) (or (>= (- y5 0.650638053) y6) (or (>= (- y6 0.56651691) y5))))) 
(and (or (<= (+ x5 0.6743569761) x7) (or (<= (+ x7 0.2845447971) x5) (or (>= (- y5 0.650638053) y7) (or (>= (- y7 0.5588099478) y5))))) 
(and (or (<= (+ x5 0.6743569761) x8) (or (<= (+ x8 0.5087820285) x5) (or (>= (- y5 0.650638053) y8) (or (>= (- y8 0.515334815) y5))))) 
(and (or (<= (+ x5 0.6743569761) x9) (or (<= (+ x9 0.8552794474) x5) (or (>= (- y5 0.650638053) y9) (or (>= (- y9 0.5101026745) y5))))) 
(and (or (<= (+ x5 0.6743569761) x10) (or (<= (+ x10 0.4612371522) x5) (or (>= (- y5 0.650638053) y10) (or (>= (- y10 0.4397598073) y5))))) 
(and (or (<= (+ x5 0.6743569761) x11) (or (<= (+ x11 0.6157342174) x5) (or (>= (- y5 0.650638053) y11) (or (>= (- y11 0.3536154748) y5))))) 
(and (or (<= (+ x5 0.6743569761) x12) (or (<= (+ x12 0.1880127402) x5) (or (>= (- y5 0.650638053) y12) (or (>= (- y12 0.2098325106) y5))))) 
(and (or (<= (+ x5 0.6743569761) x13) (or (<= (+ x13 0.6928259987) x5) (or (>= (- y5 0.650638053) y13) (or (>= (- y13 0.1582222869) y5))))) 
(and (or (<= (+ x5 0.6743569761) x14) (or (<= (+ x14 0.4948998519) x5) (or (>= (- y5 0.650638053) y14) (or (>= (- y14 0.0311510725) y5))))) 
(and (or (<= (+ x6 0.086875282) x7) (or (<= (+ x7 0.2845447971) x6) (or (>= (- y6 0.56651691) y7) (or (>= (- y7 0.5588099478) y6))))) 
(and (or (<= (+ x6 0.086875282) x8) (or (<= (+ x8 0.5087820285) x6) (or (>= (- y6 0.56651691) y8) (or (>= (- y8 0.515334815) y6))))) 
(and (or (<= (+ x6 0.086875282) x9) (or (<= (+ x9 0.8552794474) x6) (or (>= (- y6 0.56651691) y9) (or (>= (- y9 0.5101026745) y6))))) 
(and (or (<= (+ x6 0.086875282) x10) (or (<= (+ x10 0.4612371522) x6) (or (>= (- y6 0.56651691) y10) (or (>= (- y10 0.4397598073) y6))))) 
(and (or (<= (+ x6 0.086875282) x11) (or (<= (+ x11 0.6157342174) x6) (or (>= (- y6 0.56651691) y11) (or (>= (- y11 0.3536154748) y6))))) 
(and (or (<= (+ x6 0.086875282) x12) (or (<= (+ x12 0.1880127402) x6) (or (>= (- y6 0.56651691) y12) (or (>= (- y12 0.2098325106) y6))))) 
(and (or (<= (+ x6 0.086875282) x13) (or (<= (+ x13 0.6928259987) x6) (or (>= (- y6 0.56651691) y13) (or (>= (- y13 0.1582222869) y6))))) 
(and (or (<= (+ x6 0.086875282) x14) (or (<= (+ x14 0.4948998519) x6) (or (>= (- y6 0.56651691) y14) (or (>= (- y14 0.0311510725) y6))))) 
(and (or (<= (+ x7 0.2845447971) x8) (or (<= (+ x8 0.5087820285) x7) (or (>= (- y7 0.5588099478) y8) (or (>= (- y8 0.515334815) y7))))) 
(and (or (<= (+ x7 0.2845447971) x9) (or (<= (+ x9 0.8552794474) x7) (or (>= (- y7 0.5588099478) y9) (or (>= (- y9 0.5101026745) y7))))) 
(and (or (<= (+ x7 0.2845447971) x10) (or (<= (+ x10 0.4612371522) x7) (or (>= (- y7 0.5588099478) y10) (or (>= (- y10 0.4397598073) y7))))) 
(and (or (<= (+ x7 0.2845447971) x11) (or (<= (+ x11 0.6157342174) x7) (or (>= (- y7 0.5588099478) y11) (or (>= (- y11 0.3536154748) y7))))) 
(and (or (<= (+ x7 0.2845447971) x12) (or (<= (+ x12 0.1880127402) x7) (or (>= (- y7 0.5588099478) y12) (or (>= (- y12 0.2098325106) y7))))) 
(and (or (<= (+ x7 0.2845447971) x13) (or (<= (+ x13 0.6928259987) x7) (or (>= (- y7 0.5588099478) y13) (or (>= (- y13 0.1582222869) y7))))) 
(and (or (<= (+ x7 0.2845447971) x14) (or (<= (+ x14 0.4948998519) x7) (or (>= (- y7 0.5588099478) y14) (or (>= (- y14 0.0311510725) y7))))) 
(and (or (<= (+ x8 0.5087820285) x9) (or (<= (+ x9 0.8552794474) x8) (or (>= (- y8 0.515334815) y9) (or (>= (- y9 0.5101026745) y8))))) 
(and (or (<= (+ x8 0.5087820285) x10) (or (<= (+ x10 0.4612371522) x8) (or (>= (- y8 0.515334815) y10) (or (>= (- y10 0.4397598073) y8))))) 
(and (or (<= (+ x8 0.5087820285) x11) (or (<= (+ x11 0.6157342174) x8) (or (>= (- y8 0.515334815) y11) (or (>= (- y11 0.3536154748) y8))))) 
(and (or (<= (+ x8 0.5087820285) x12) (or (<= (+ x12 0.1880127402) x8) (or (>= (- y8 0.515334815) y12) (or (>= (- y12 0.2098325106) y8))))) 
(and (or (<= (+ x8 0.5087820285) x13) (or (<= (+ x13 0.6928259987) x8) (or (>= (- y8 0.515334815) y13) (or (>= (- y13 0.1582222869) y8))))) 
(and (or (<= (+ x8 0.5087820285) x14) (or (<= (+ x14 0.4948998519) x8) (or (>= (- y8 0.515334815) y14) (or (>= (- y14 0.0311510725) y8))))) 
(and (or (<= (+ x9 0.8552794474) x10) (or (<= (+ x10 0.4612371522) x9) (or (>= (- y9 0.5101026745) y10) (or (>= (- y10 0.4397598073) y9))))) 
(and (or (<= (+ x9 0.8552794474) x11) (or (<= (+ x11 0.6157342174) x9) (or (>= (- y9 0.5101026745) y11) (or (>= (- y11 0.3536154748) y9))))) 
(and (or (<= (+ x9 0.8552794474) x12) (or (<= (+ x12 0.1880127402) x9) (or (>= (- y9 0.5101026745) y12) (or (>= (- y12 0.2098325106) y9))))) 
(and (or (<= (+ x9 0.8552794474) x13) (or (<= (+ x13 0.6928259987) x9) (or (>= (- y9 0.5101026745) y13) (or (>= (- y13 0.1582222869) y9))))) 
(and (or (<= (+ x9 0.8552794474) x14) (or (<= (+ x14 0.4948998519) x9) (or (>= (- y9 0.5101026745) y14) (or (>= (- y14 0.0311510725) y9))))) 
(and (or (<= (+ x10 0.4612371522) x11) (or (<= (+ x11 0.6157342174) x10) (or (>= (- y10 0.4397598073) y11) (or (>= (- y11 0.3536154748) y10))))) 
(and (or (<= (+ x10 0.4612371522) x12) (or (<= (+ x12 0.1880127402) x10) (or (>= (- y10 0.4397598073) y12) (or (>= (- y12 0.2098325106) y10))))) 
(and (or (<= (+ x10 0.4612371522) x13) (or (<= (+ x13 0.6928259987) x10) (or (>= (- y10 0.4397598073) y13) (or (>= (- y13 0.1582222869) y10))))) 
(and (or (<= (+ x10 0.4612371522) x14) (or (<= (+ x14 0.4948998519) x10) (or (>= (- y10 0.4397598073) y14) (or (>= (- y14 0.0311510725) y10))))) 
(and (or (<= (+ x11 0.6157342174) x12) (or (<= (+ x12 0.1880127402) x11) (or (>= (- y11 0.3536154748) y12) (or (>= (- y12 0.2098325106) y11))))) 
(and (or (<= (+ x11 0.6157342174) x13) (or (<= (+ x13 0.6928259987) x11) (or (>= (- y11 0.3536154748) y13) (or (>= (- y13 0.1582222869) y11))))) 
(and (or (<= (+ x11 0.6157342174) x14) (or (<= (+ x14 0.4948998519) x11) (or (>= (- y11 0.3536154748) y14) (or (>= (- y14 0.0311510725) y11))))) 
(and (or (<= (+ x12 0.1880127402) x13) (or (<= (+ x13 0.6928259987) x12) (or (>= (- y12 0.2098325106) y13) (or (>= (- y13 0.1582222869) y12))))) 
(and (or (<= (+ x12 0.1880127402) x14) (or (<= (+ x14 0.4948998519) x12) (or (>= (- y12 0.2098325106) y14) (or (>= (- y14 0.0311510725) y12))))) 
(and (or (<= (+ x13 0.6928259987) x14) (or (<= (+ x14 0.4948998519) x13) (or (>= (- y13 0.1582222869) y14) (or (>= (- y14 0.0311510725) y13))))) )))))))))))))))))))))))))))))))))))))))))))))))))))))))))))))))))))))))))))))))))))))))))))))))))))))))))))))))))))))))))))))))))))))))))))))))))))))))))))))))))))))))))))))))))))))))))))))))))))))))))))))))))))))))
(minimize c)
(check-sat)
(get-objectives)
(exit)
